Gurobi 12.0.3:   lim:time = 14400

  mip:bestbound = 1

Set parameter LogToConsole to value 1

  tech:outlev = 1

Set parameter Cuts to value 3

  cut:cuts = 3

Set parameter Presolve to value 2

  pre:solve = 2

Set parameter MIPFocus to value 2

  mip:focus = 2

Set parameter Symmetry to value 2

  mip:symmetry = 2

Set parameter InfUnbdInfo to value 1

Gurobi Optimizer version 12.0.3 build v12.0.3rc0 (win64 - Windows 10.0 (19045.2))



CPU model: 11th Gen Intel(R) Core(TM) i7-11700 @ 2.50GHz, instruction set [SSE2|AVX|AVX2|AVX512]

Thread count: 8 physical cores, 16 logical processors, using up to 16 threads



Non-default parameters:

TimeLimit  14400

MIPFocus  2

Symmetry  2

Cuts  3

InfUnbdInfo  1

Presolve  2



Optimize a model with 404 rows, 914 columns and 5127 nonzeros

Model fingerprint: 0x454f021d

Model has 5 quadratic objective terms

Model has 10 quadratic constraints

Variable types: 38 continuous, 876 integer (0 binary)

Coefficient statistics:

  Matrix range     [1e+00, 1e+05]

  QMatrix range    [1e+00, 1e+00]

  QLMatrix range   [1e+00, 1e+01]

  Objective range  [4e+00, 1e+02]

  QObjective range [2e+00, 2e+00]

  Bounds range     [1e+00, 1e+02]

  RHS range        [1e+00, 1e+05]

  QRHS range       [1e+02, 1e+02]

Presolve removed 22 rows and 82 columns

Presolve time: 0.25s

Presolved: 968 rows, 1401 columns, 8287 nonzeros

Variable types: 279 continuous, 1122 integer (1011 binary)

Root relaxation presolve removed 24 rows and 3 columns

Root relaxation presolved: 728 rows, 1186 columns, 13593 nonzeros





Root relaxation: objective 4.637084e+01, 137 iterations, 0.04 seconds (0.02 work units)



    Nodes    |    Current Node    |     Objective Bounds      |     Work

 Expl Unexpl |  Obj  Depth IntInf | Incumbent    BestBd   Gap | It/Node Time



     0     0   46.37084    0   30          -   46.37084      -     -    0s

H    0     0                     602.3300000   53.37034  91.1%     -    0s

     0     0   82.69548    0   62  602.33000   82.69548  86.3%     -    0s

H    0     0                     406.5500000   82.69548  79.7%     -    0s

     0     0   82.69548    0   67  406.55000   82.69548  79.7%     -    0s

     0     0   82.69548    0   70  406.55000   82.69548  79.7%     -    0s

     0     0   82.69548    0   65  406.55000   82.69548  79.7%     -    0s

H    0     0                     353.3800000   82.69548  76.6%     -    0s

     0     0   82.69548    0   67  353.38000   82.69548  76.6%     -    0s

H    0     0                     238.5300000   94.58230  60.3%     -    1s

H    0     0                     235.0900000   94.58230  59.8%     -    1s

     0     0   94.58230    0   55  235.09000   94.58230  59.8%     -    1s

     0     0  101.35898    0   43  235.09000  101.35898  56.9%     -    1s

     0     0  101.35898    0   46  235.09000  101.35898  56.9%     -    1s

     0     0  101.66772    0   57  235.09000  101.66772  56.8%     -    1s

     0     0  103.81000    0   45  235.09000  103.81000  55.8%     -    1s

     0     0  103.81000    0   41  235.09000  103.81000  55.8%     -    1s

     0     0  103.81035    0   14  235.09000  103.81035  55.8%     -    1s

     0     0  103.81143    0   14  235.09000  103.81143  55.8%     -    1s

H    0     0                     233.5900000  103.81143  55.6%     -    1s

     0     0  103.81705    0   69  233.59000  103.81705  55.6%     -    1s

     0     0  103.81705    0   53  233.59000  103.81705  55.6%     -    2s

     0     2  103.81705    0   53  233.59000  103.81705  55.6%     -    2s

H   39    61                     232.6200000  103.81705  55.4%  42.1    2s

  2727  1344  156.21305   26   73  232.62000  122.11000  47.5%  16.3    5s

 12644  3349 infeasible   24       232.62000  139.53999  40.0%  17.9   10s

*17073  4029              35     229.1800000  145.56476  36.5%  17.8   11s

H18235  4183                     227.6800000  147.63734  35.2%  18.0   11s

 25113  4044 infeasible   29       227.68000  158.20333  30.5%  18.2   15s

 34555  2673     cutoff   35       227.68000  180.22347  20.8%  18.3   20s

 44156   140     cutoff   32       227.68000  208.79000  8.30%  18.1   25s



Cutting planes:

  Learned: 15

  Gomory: 46

  Lift-and-project: 17

  Cover: 30

  Implied bound: 86

  Projected implied bound: 17

  Clique: 34

  MIR: 36

  Mixing: 7

  StrongCG: 7

  Flow cover: 210

  GUB cover: 1

  Inf proof: 19

  Zero half: 107

  Network: 3

  RLT: 47

  Relax-and-lift: 78



Explored 45954 nodes (825591 simplex iterations) in 25.57 seconds (13.11 work units)

Thread count was 16 (of 16 available processors)



Solution count 10: 227.68 227.68 229.18 ... 602.33



Optimal solution found (tolerance 1.00e-04)

Best objective 2.276800000000e+02, best bound 2.276800000000e+02, gap 0.0000%



AMPL MP initial flat model has 914 variables (0 integer, 876 binary);

Objectives: 1 quadratic; 

Constraints:  404 linear; 10 quadratic;



AMPL MP final model has 914 variables (0 integer, 876 binary);

Objectives: 1 quadratic; 

Constraints:  404 linear; 10 quadratic;





-----RESULTS INFO-----
running_time:  25.641000000000002
TC.best_bound:  227.68
TC:  227.67999999999998
MIP Gap (%):  1.2483182286719963e-14
=== Vehicle Routes ===
Vehicle 1: 0 → 2
Vehicle 1: 1 → 18
Vehicle 1: 2 → 14
Vehicle 1: 14 → 1
Vehicle 2: 0 → 15
Vehicle 2: 15 → 18
Vehicle 3: 0 → 18
Vehicle 4: 0 → 18

=== Full Vehicle Routes ===
Vehicle 1: 0 → 2 → 14 → 1 → 0 (84<100)
Vehicle 2: 0 → 15 → 0 (54<100)
Vehicle 3: 0 → 0 (0<100)
Vehicle 4: 0 → 0 (0<100)
Arc used by MRT line: y variables:
MRT used: 15 → 16
Customer assigment to PL: u variables:
3 16
4 14
5 14
6 16
7 16
8 14
9 14
10 16
Node is served by regular vehicle: g variables:
1
2
14
15
Customer assigment to Home delivery: gm variables:
1
2
Node total demands: ntd variables:
1 13 1
2 12 1
7 0 0
8 0 0
9 0 0
10 0 0
17 0 0
11 0 0
12 0 0
13 0 0
14 59 1
15 54 1
16 0 0
Customer's demand delivered to PL: l variables:
3
4
5
6
7
8
9
10
Lockers load <= capacity:
0 <= 79
0 <= 70
0 <= 82
0 <= 88
59 <= 75
0 <= 94
54 <= 95
